
Gurobi 6.5.2 (win64) logging started 07/22/16 21:17:52


Gurobi 6.5.2 (win64) logging started 07/22/16 21:17:52

Optimize a model with 2625 rows, 710 columns and 6814 nonzeros
Coefficient statistics:
  Matrix range    [6e-08, 3e+02]
  Objective range [1e+00, 1e+00]
  Bounds range    [1e+00, 1e+00]
  RHS range       [6e-06, 1e+03]
Presolve removed 2004 rows and 91 columns
Presolve time: 0.00s
Presolved: 621 rows, 619 columns, 2911 nonzeros
Variable types: 264 continuous, 355 integer (355 binary)
Warning: Markowitz tolerance tightened to 0.03125

Root relaxation: objective 1.465809e+02, 2365 iterations, 0.11 seconds

    Nodes    |    Current Node    |     Objective Bounds      |     Work
 Expl Unexpl |  Obj  Depth IntInf | Incumbent    BestBd   Gap | It/Node Time

     0     0  146.58085    0  141          -  146.58085      -     -    0s
H    0     0                    1.234001e+07  148.63240   100%     -    0s
     0     0  151.44711    0  122 1.2340e+07  151.44711   100%     -    0s
     0     0  151.47040    0  124 1.2340e+07  151.47040   100%     -    0s
H    0     0                     156.9583949  151.47040  3.50%     -    0s
     0     0  151.64446    0  119  156.95839  151.64446  3.39%     -    0s
     0     0  151.68789    0  117  156.95839  151.68789  3.36%     -    0s
     0     0  151.68949    0  117  156.95839  151.68949  3.36%     -    0s
     0     0  151.70822    0  116  156.95839  151.70822  3.34%     -    0s
H    0     0                     156.8355101  151.70822  3.27%     -    0s
     0     0  151.70833    0  116  156.83551  151.70833  3.27%     -    0s
     0     0  151.70833    0  116  156.83551  151.70833  3.27%     -    0s
     0     0  151.70833    0   99  156.83551  151.70833  3.27%     -    0s
     0     0  151.70833    0  108  156.83551  151.70833  3.27%     -    0s
     0     0  151.73191    0  108  156.83551  151.73191  3.25%     -    0s
     0     0  152.08391    0  110  156.83551  152.08391  3.03%     -    0s
     0     0  152.08391    0  109  156.83551  152.08391  3.03%     -    0s
     0     0  152.08446    0  108  156.83551  152.08446  3.03%     -    0s
     0     0  152.08446    0  108  156.83551  152.08446  3.03%     -    0s
     0     2  152.08446    0  108  156.83551  152.08446  3.03%     -    0s
H  111   108                     156.7904787  152.71582  2.60%  20.7    0s
*  129   108              45     156.6095681  152.90117  2.37%  18.8    0s
H  294   217                     156.5850230  152.90117  2.35%  15.2    0s
*  308   213              39     156.4968647  152.90117  2.30%  14.7    0s
H  663   443                     156.3882002  153.24413  2.01%  14.0    0s
H  905   584                     156.3771515  153.33491  1.95%  14.0    0s
H 1207   770                     156.3454301  153.33491  1.93%  16.2    1s
* 2723  1110              42     156.3382985  153.89746  1.56%  15.2    2s
H 3245  1255                     156.3177075  153.99245  1.49%  14.8    2s
* 4224  1764              37     156.2870546  154.10975  1.39%  14.3    2s
H 4506  1866                     156.2706990  154.14315  1.36%  14.4    2s
H 5855  2497                     156.2456990  154.27134  1.26%  13.9    2s
* 5867  2470              40     156.2142718  154.27134  1.24%  13.9    2s
 17572  6386  155.55554   25   68  156.21427  154.86645  0.86%  13.1    5s
 38235 10813  155.88490   24   76  156.21427  155.25625  0.61%  12.9   10s
H45106 10748                     156.1296493  155.30954  0.53%  13.3   11s
 61673  9175  155.73423   26   65  156.12965  155.53720  0.38%  14.3   15s

Cutting planes:
  Gomory: 3
  MIR: 45
  Flow cover: 37

Explored 87365 nodes (1226012 simplex iterations) in 19.98 seconds
Thread count was 8 (of 8 available processors)

Optimal solution found (tolerance 1.00e-04)
Best objective 1.561296493419e+02, best bound 1.561179448429e+02, gap 0.0075%

Wrote requested result file 'H1\instance11\\Results11E_Sol6.lp'


Gurobi 6.5.2 (win64) logging started 07/22/16 21:22:40


Gurobi 6.5.2 (win64) logging started 07/22/16 21:22:40

Optimize a model with 2625 rows, 710 columns and 6814 nonzeros
Coefficient statistics:
  Matrix range    [6e-08, 3e+02]
  Objective range [1e+00, 1e+00]
  Bounds range    [1e+00, 1e+00]
  RHS range       [6e-06, 1e+03]
Presolve removed 2004 rows and 91 columns
Presolve time: 0.00s
Presolved: 621 rows, 619 columns, 2911 nonzeros
Variable types: 264 continuous, 355 integer (355 binary)
Warning: Markowitz tolerance tightened to 0.03125

Root relaxation: objective 1.465809e+02, 2365 iterations, 0.09 seconds

    Nodes    |    Current Node    |     Objective Bounds      |     Work
 Expl Unexpl |  Obj  Depth IntInf | Incumbent    BestBd   Gap | It/Node Time

     0     0  146.58085    0  141          -  146.58085      -     -    0s
H    0     0                    1.234001e+07  148.63240   100%     -    0s
     0     0  151.44711    0  122 1.2340e+07  151.44711   100%     -    0s
     0     0  151.47040    0  124 1.2340e+07  151.47040   100%     -    0s
H    0     0                     156.9583949  151.47040  3.50%     -    0s
     0     0  151.64446    0  119  156.95839  151.64446  3.39%     -    0s
     0     0  151.68789    0  117  156.95839  151.68789  3.36%     -    0s
     0     0  151.68949    0  117  156.95839  151.68949  3.36%     -    0s
     0     0  151.70822    0  116  156.95839  151.70822  3.34%     -    0s
H    0     0                     156.8355101  151.70822  3.27%     -    0s
     0     0  151.70833    0  116  156.83551  151.70833  3.27%     -    0s
     0     0  151.70833    0  116  156.83551  151.70833  3.27%     -    0s
     0     0  151.70833    0   99  156.83551  151.70833  3.27%     -    0s
     0     0  151.70833    0  108  156.83551  151.70833  3.27%     -    0s
     0     0  151.73191    0  108  156.83551  151.73191  3.25%     -    0s
     0     0  152.08391    0  110  156.83551  152.08391  3.03%     -    0s
     0     0  152.08391    0  109  156.83551  152.08391  3.03%     -    0s
     0     0  152.08446    0  108  156.83551  152.08446  3.03%     -    0s
     0     0  152.08446    0  108  156.83551  152.08446  3.03%     -    0s
     0     2  152.08446    0  108  156.83551  152.08446  3.03%     -    0s
H  111   108                     156.7904787  152.71582  2.60%  20.7    0s
*  129   108              45     156.6095681  152.90117  2.37%  18.8    0s
H  294   217                     156.5850230  152.90117  2.35%  15.2    0s
*  308   213              39     156.4968647  152.90117  2.30%  14.7    0s
H  663   443                     156.3882002  153.24413  2.01%  14.0    0s
H  905   584                     156.3771515  153.33491  1.95%  14.0    0s
H 1207   770                     156.3454301  153.33491  1.93%  16.2    1s
* 2723  1110              42     156.3382985  153.89746  1.56%  15.2    2s
H 3245  1255                     156.3177075  153.99245  1.49%  14.8    2s
* 4224  1764              37     156.2870546  154.10975  1.39%  14.3    2s
H 4506  1866                     156.2706990  154.14315  1.36%  14.4    2s
H 5855  2497                     156.2456990  154.27134  1.26%  13.9    2s
* 5867  2470              40     156.2142718  154.27134  1.24%  13.9    2s
 16391  6046  155.34698   22   83  156.21427  154.84867  0.87%  13.2    5s
 37469 10740  156.20107   27   41  156.21427  155.24815  0.62%  12.9   10s
H45106 10748                     156.1296493  155.30954  0.53%  13.3   11s
 61673  9175  155.73423   26   65  156.12965  155.53720  0.38%  14.3   15s
 86828   468     cutoff   31       156.12965  156.08140  0.03%  14.1   20s

Cutting planes:
  Gomory: 3
  MIR: 45
  Flow cover: 37

Explored 87365 nodes (1226012 simplex iterations) in 20.05 seconds
Thread count was 8 (of 8 available processors)

Optimal solution found (tolerance 1.00e-04)
Best objective 1.561296493419e+02, best bound 1.561179448429e+02, gap 0.0075%

Wrote requested result file 'H1\instance11\\Results11E_Sol6.lp'

